BAYES
144
2 2 2 2 2 2 2 2 2 2 2 2 2 2 2 2 2 2 2 2 2 2 2 2 2 2 2 2 2 2 2 2 2 2 2 2 2 2 2 2 2 2 2 2 2 2 2 2 2 2 2 2 2 2 2 2 2 2 2 2 2 2 2 2 2 2 2 2 2 2 2 2 2 2 2 2 2 2 2 2 2 2 2 2 2 2 2 2 2 2 2 2 2 2 2 2 2 2 2 2 2 2 2 2 2 2 2 2 2 2 2 2 2 2 2 2 2 2 2 2 2 2 2 2 2 2 2 2 2 2 2 2 2 2 2 2 2 2 2 2 2 2 2 2
144
1 0
2 0 1
2 1 2
2 2 3
2 3 4
2 4 5
2 5 6
2 6 7
2 7 8
2 8 9
2 9 10
2 10 11
2 0 12
3 1 12 13
3 2 13 14
3 3 14 15
3 4 15 16
3 5 16 17
3 6 17 18
3 7 18 19
3 8 19 20
3 9 20 21
3 10 21 22
3 11 22 23
2 12 24
3 13 24 25
3 14 25 26
3 15 26 27
3 16 27 28
3 17 28 29
3 18 29 30
3 19 30 31
3 20 31 32
3 21 32 33
3 22 33 34
3 23 34 35
2 24 36
3 25 36 37
3 26 37 38
3 27 38 39
3 28 39 40
3 29 40 41
3 30 41 42
3 31 42 43
3 32 43 44
3 33 44 45
3 34 45 46
3 35 46 47
2 36 48
3 37 48 49
3 38 49 50
3 39 50 51
3 40 51 52
3 41 52 53
3 42 53 54
3 43 54 55
3 44 55 56
3 45 56 57
3 46 57 58
3 47 58 59
2 48 60
3 49 60 61
3 50 61 62
3 51 62 63
3 52 63 64
3 53 64 65
3 54 65 66
3 55 66 67
3 56 67 68
3 57 68 69
3 58 69 70
3 59 70 71
2 60 72
3 61 72 73
3 62 73 74
3 63 74 75
3 64 75 76
3 65 76 77
3 66 77 78
3 67 78 79
3 68 79 80
3 69 80 81
3 70 81 82
3 71 82 83
2 72 84
3 73 84 85
3 74 85 86
3 75 86 87
3 76 87 88
3 77 88 89
3 78 89 90
3 79 90 91
3 80 91 92
3 81 92 93
3 82 93 94
3 83 94 95
2 84 96
3 85 96 97
3 86 97 98
3 87 98 99
3 88 99 100
3 89 100 101
3 90 101 102
3 91 102 103
3 92 103 104
3 93 104 105
3 94 105 106
3 95 106 107
2 96 108
3 97 108 109
3 98 109 110
3 99 110 111
3 100 111 112
3 101 112 113
3 102 113 114
3 103 114 115
3 104 115 116
3 105 116 117
3 106 117 118
3 107 118 119
2 108 120
3 109 120 121
3 110 121 122
3 111 122 123
3 112 123 124
3 113 124 125
3 114 125 126
3 115 126 127
3 116 127 128
3 117 128 129
3 118 129 130
3 119 130 131
2 120 132
3 121 132 133
3 122 133 134
3 123 134 135
3 124 135 136
3 125 136 137
3 126 137 138
3 127 138 139
3 128 139 140
3 129 140 141
3 130 141 142
3 131 142 143
2
1 0
4
0 1 0 1
4
1 0 1 0
4
1 0 1 0
4
0 1 1 0
4
0 1 1 0
4
0.5370472999939303 0.4629527000060697 0.3774861422135422 0.6225138577864578
4
1 0 0 1
4
0 1 0 1
4
1 0 0 1
4
0 1 0 1
4
0 1 1 0
4
0 1 0 1
8
0 1 1 0 1 0 1 0
8
0.07777362557833055 0.9222263744216694 0.18804692651272772 0.8119530734872723 0.35445064921907593 0.645549350780924 0.185930049916664 0.8140699500833359
8
0 1 0 1 0 1 0 1
8
0 1 1 0 1 0 0 1
8
1 0 0 1 0 1 1 0
8
1 0 1 0 0 1 1 0
8
0 1 0 1 0 1 0 1
8
1 0 0 1 1 0 0 1
8
0 1 1 0 0 1 1 0
8
1 0 0 1 1 0 1 0
8
1 0 0 1 0 1 1 0
4
1 0 1 0
8
1 0 1 0 1 0 0 1
8
0 1 0 1 0 1 1 0
8
1 0 0 1 1 0 1 0
8
1 0 0 1 0 1 1 0
8
0 1 1 0 0 1 1 0
8
0 1 1 0 1 0 1 0
8
0 1 0 1 0 1 1 0
8
0.43606148138979706 0.5639385186102029 0.401279498741728 0.5987205012582719 0.3634964682025751 0.6365035317974249 0.3456652007740729 0.6543347992259271
8
0 1 0 1 1 0 1 0
8
0.45749392898556973 0.5425060710144302 0.8052898215890574 0.19471017841094265 0.49339310973259154 0.5066068902674086 0.6748075994152227 0.32519240058477733
8
0 1 1 0 1 0 1 0
4
0 1 0 1
8
0 1 0 1 0 1 1 0
8
1 0 1 0 0 1 0 1
8
1 0 1 0 0 1 0 1
8
1 0 0 1 0 1 1 0
8
0 1 0 1 1 0 1 0
8
0 1 0 1 0 1 0 1
8
0 1 0 1 0 1 1 0
8
0 1 0 1 0 1 1 0
8
1 0 0 1 1 0 1 0
8
1 0 0 1 1 0 0 1
8
1 0 1 0 1 0 0 1
4
1 0 0 1
8
1 0 1 0 1 0 1 0
8
0 1 1 0 0 1 1 0
8
1 0 1 0 0 1 0 1
8
0 1 1 0 0 1 0 1
8
1 0 0 1 1 0 0 1
8
1 0 0 1 1 0 1 0
8
1 0 0 1 1 0 0 1
8
1 0 1 0 1 0 1 0
8
1 0 1 0 1 0 1 0
8
0 1 0 1 1 0 0 1
8
1 0 1 0 0 1 0 1
4
0 1 1 0
8
0.9861187709553378 0.013881229044662139 0.8129162455046325 0.18708375449536754 0.5480539449546897 0.45194605504531027 0.4780594094684709 0.5219405905315291
8
0 1 0 1 1 0 1 0
8
0 1 0 1 1 0 0 1
8
0 1 0 1 1 0 1 0
8
1 0 1 0 1 0 0 1
8
1 0 0 1 0 1 0 1
8
1 0 0 1 0 1 0 1
8
0 1 0 1 1 0 0 1
8
1 0 1 0 0 1 1 0
8
0 1 0 1 1 0 1 0
8
1 0 1 0 0 1 1 0
4
0 1 1 0
8
0 1 1 0 0 1 0 1
8
1 0 0 1 1 0 1 0
8
0 1 0 1 0 1 0 1
8
1 0 1 0 1 0 0 1
8
1 0 1 0 0 1 0 1
8
0 1 0 1 1 0 1 0
8
0 1 1 0 1 0 0 1
8
1 0 0 1 1 0 0 1
8
0.772208693794348 0.22779130620565197 0.531670781032504 0.468329218967496 0.30170890646974496 0.6982910935302551 0.8061665235284938 0.1938334764715061
8
0 1 1 0 1 0 1 0
8
1 0 0 1 0 1 1 0
4
1 0 0 1
8
1 0 0 1 0 1 1 0
8
0.36220299428248226 0.6377970057175179 0.3009471242233246 0.6990528757766753 0.6907295989970681 0.3092704010029319 0.23395339262456946 0.7660466073754305
8
0 1 0 1 1 0 0 1
8
0 1 0 1 1 0 1 0
8
0 1 0 1 0 1 0 1
8
1 0 1 0 0 1 0 1
8
0 1 0 1 1 0 0 1
8
0 1 0 1 1 0 1 0
8
0 1 0 1 0 1 0 1
8
0.01302656295440862 0.9869734370455914 0.5198697850865832 0.4801302149134168 0.15105358493469484 0.8489464150653052 0.618672172918913 0.38132782708108703
8
1 0 1 0 0 1 1 0
4
1 0 0 1
8
1 0 0 1 1 0 0 1
8
0.7800858861953945 0.21991411380460552 0.49747597202980903 0.502524027970191 0.47526158057505175 0.5247384194249483 0.9705848331556299 0.02941516684437003
8
0.47533809137031596 0.524661908629684 0.22914381630369468 0.7708561836963054 0.2220711640569706 0.7779288359430294 0.601432662743137 0.398567337256863
8
0 1 1 0 1 0 0 1
8
1 0 0 1 0 1 1 0
8
0 1 0 1 0 1 0 1
8
0 1 1 0 1 0 0 1
8
1 0 1 0 0 1 1 0
8
1 0 1 0 1 0 1 0
8
0 1 1 0 0 1 1 0
8
1 0 0 1 1 0 0 1
4
1 0 1 0
8
1 0 0 1 0 1 1 0
8
0 1 0 1 0 1 0 1
8
0 1 1 0 1 0 1 0
8
1 0 1 0 1 0 1 0
8
1 0 0 1 1 0 0 1
8
0 1 0 1 1 0 1 0
8
0.7039165429362805 0.2960834570637195 0.9239026860973943 0.0760973139026056 0.7344517463318001 0.26554825366819995 0.06323725398454941 0.9367627460154506
8
0 1 1 0 0 1 0 1
8
0 1 0 1 0 1 1 0
8
1 0 0 1 1 0 1 0
8
1 0 1 0 0 1 0 1
4
0 1 0 1
8
0 1 0 1 1 0 1 0
8
0 1 1 0 0 1 1 0
8
0 1 0 1 1 0 0 1
8
0 1 0 1 1 0 0 1
8
0 1 1 0 0 1 1 0
8
1 0 0 1 1 0 1 0
8
0.9236600662815541 0.0763399337184459 0.6719684029045512 0.3280315970954489 0.1057133774903529 0.8942866225096471 0.8449147931509869 0.15508520684901306
8
1 0 0 1 1 0 0 1
8
1 0 0 1 0 1 0 1
8
0 1 1 0 1 0 1 0
8
0 1 1 0 1 0 1 0
4
0 1 0 1
8
0 1 1 0 0 1 1 0
8
1 0 0 1 1 0 0 1
8
0 1 0 1 1 0 0 1
8
0 1 1 0 1 0 1 0
8
0 1 0 1 1 0 1 0
8
0.20304741223937886 0.7969525877606212 0.23043216908100309 0.7695678309189969 0.30036357098436883 0.6996364290156312 0.5382296397250939 0.46177036027490614
8
0.3696084161707005 0.6303915838292996 0.8509902155045429 0.14900978449545707 0.45764840410040747 0.5423515958995926 0.762296085316987 0.237703914683013
8
0 1 0 1 1 0 1 0
8
0 1 1 0 1 0 1 0
8
0.06590808070055054 0.9340919192994495 0.4113103959031166 0.5886896040968833 0.5154105802663735 0.4845894197336264 0.5737713345073533 0.42622866549264676
8
1 0 0 1 0 1 0 1
